c A SAT instance generated from a 3-CNF formula that had 40 clauses and 10 variables
p cnf 10 40
6 -5 7 0
3 2 10 0
-1 4 -5 0
4 -2 -10 0
7 5 -10 0
-10 2 -1 0
-1 -10 -9 0
2 -6 -1 0
7 8 3 0
-7 3 -9 0
-8 -3 -5 0
-5 -2 4 0
-3 -1 -9 0
7 -3 6 0
-10 3 -5 0
9 -5 7 0
2 -7 -3 0
-5 -4 -7 0
2 8 -7 0
4 -2 6 0
-5 9 3 0
4 5 -10 0
-8 7 2 0
5 1 4 0
6 -7 4 0
-3 4 -2 0
-4 1 -6 0
-9 6 7 0
-1 3 -2 0
-3 -9 1 0
9 -4 10 0
4 7 8 0
6 -8 -4 0
-2 -5 3 0
-7 3 -4 0
-5 -7 8 0
-6 8 -9 0
6 10 -9 0
3 5 -4 0
-8 -1 -10 0
